webassembly/ejemplos_dzn/7/folder7_json_27.dzn
TERM = { '.', 's(2)', 'in_1', 'local_0', 'local_1', 's(1)', 's(0)', 's(3)', 'in_0'};
null = '.';
s = 7;
n = 9;
ndeps = 2;
max_registers_sz = 5;
NR = 2;
registers = [|'local_0', 's(0)', |'local_1', 's(2)'|];
dependencies = [|'i32.load8_s_0', 'call[function_index(0)]_2', |'call[function_index(0)]_2', 'call[function_index(1)]_4'|];
GET_ENUM = { GET1, GET2, GET3, GET4, GET5, GET6, GET7};
SET_ENUM = { SET1, SET2, SET3, SET4, SET5, SET6, SET7};
TEE_ENUM = { TEE1, TEE2, TEE3, TEE4, TEE5, TEE6, TEE7};
N = 4;
OP = { 'i32.add_0', 'call[function_index(0)]_2', 'call[function_index(1)]_4', 'i32.load8_s_0' };
in_ops = [2, 0, 3, 1 ];
out_ops = [1, 2, 0, 1 ];
in1 = ['s(2)', '.', 's(2)', 'in_0' ];
in2 = ['in_1', '.', 's(1)', '.' ];
in3 = ['.', '.', 's(0)', '.' ];
out1 = ['s(3)', 's(2)', '.', 's(0)' ];
out2 = ['.', 's(1)', '.', '.' ];
out3 = ['.', '.', '.', '.' ];
comm = [true, false, false, false ];
gas = [1, 1, 1, 1 ];
sz = [1, 1, 1, 1 ];
stor = [false, true, true, false ];
lb = [ 1, 1, 1, 1 ];
ub = [ 7, 7, 7, 7 ];
startstack = [ 'in_0', 'in_1', null, null, null, null, null, null, null ];
endstack = [ 's(3)', null, null, null, null, null, null, null, null ];
